r = [
0,16,75,273,308,289,271,195,285,28,41,107,268,272,121,318,101,89,198,292,110,170,54,34,211,258,0
];
p = [
0,26,21,28,9,26,18,9,5,5,10,7,17,20,11,13,12,13,18,28,3,17,4,15,4,23,0
];
e = [
0,5,7,16,13,12,7,19,17,15,18,12,11,11,9,17,8,16,1,5,17,15,5,19,7,5,0
];
d = [
0,141,96,458,429,315,415,277,357,220,51,122,463,292,237,451,113,102,216,320,286,187,100,58,215,324,483
];
d_bar = [
0,164,115,483,437,338,431,285,362,225,60,128,478,310,247,463,124,114,232,345,289,202,104,72,219,345,483
];
w = [
0,0.217391304,0.368421053,0.64,1.625,0.52173913,0.4375,2.375,3.4,3,2,2,0.733333333,0.611111111,0.9,1.416666667,0.727272727,1.333333333,0.0625,0.2,5.666666667,1,1.25,1.357142857,1.75,0.238095238,0
];
